NAME : pairopt
TYPE : ACVRP
DIMENSION : 5
EDGE_WEIGHT_TYPE : EXPLICIT
EDGE_WEIGHT_FORMAT : FULL_MATRIX
CAPACITY : 7500
VEHICLES : 2
EDGE_WEIGHT_SECTION
100000 -100000 -100000 100000 100000 
100000 100000 1000000 51059 120 
100000 1000000 100000 61 51086 
0 51059 61 100000 102061 
0 120 51086 102061 100000 
DEMAND_SECTION
1 0
2 0
3 0
4 5000
5 5000
DEPOT_SECTION
1
EOF